\ENCODING=ISO-8859-1
\Problem name: MDHFVRP

Minimize
 obj: X(1,2,1,5) + X(1,2,2,4) + 2 X(1,3,1,5) + 2 X(1,3,2,4) + X(1,4,1,5)
      + X(1,4,2,4) + 2 X(1,5,1,5) + 2 X(1,5,2,4) + X(2,1,1,5) + X(2,1,2,4)
      + X(2,3,1,5) + X(2,3,2,4) + 2 X(2,4,1,5) + 2 X(2,4,2,4) + X(2,5,1,5)
      + X(2,5,2,4) + 2 X(3,1,1,5) + 2 X(3,1,2,4) + X(3,2,1,5) + X(3,2,2,4)
      + 2 X(3,4,1,5) + 2 X(3,4,2,4) + 2 X(3,5,1,5) + 2 X(3,5,2,4)
      + 3 X(4,1,1,5) + 3 X(4,1,2,4) + X(4,2,1,5) + X(4,2,2,4) + 2 X(4,3,1,5)
      + 2 X(4,3,2,4) + 4 X(5,1,1,5) + 4 X(5,1,2,4) + 5 X(5,2,1,5)
      + 5 X(5,2,2,4) + X(5,3,1,5) + X(5,3,2,4)
Subject To
 c2_1:       X(2,1,1,5) + X(2,1,2,4) + X(3,1,1,5) + X(3,1,2,4) + X(4,1,1,5)
             + X(4,1,2,4) + X(5,1,1,5) + X(5,1,2,4)  = 1
 c2_2:       X(1,2,1,5) + X(1,2,2,4) + X(3,2,1,5) + X(3,2,2,4) + X(4,2,1,5)
             + X(4,2,2,4) + X(5,2,1,5) + X(5,2,2,4)  = 1
 c2_3:       X(1,3,1,5) + X(1,3,2,4) + X(2,3,1,5) + X(2,3,2,4) + X(4,3,1,5)
             + X(4,3,2,4) + X(5,3,1,5) + X(5,3,2,4)  = 1
 c3_1:       X(1,2,1,5) + X(1,2,2,4) + X(1,3,1,5) + X(1,3,2,4) + X(1,4,1,5)
             + X(1,4,2,4) + X(1,5,1,5) + X(1,5,2,4)  = 1
 c3_2:       X(2,1,1,5) + X(2,1,2,4) + X(2,3,1,5) + X(2,3,2,4) + X(2,4,1,5)
             + X(2,4,2,4) + X(2,5,1,5) + X(2,5,2,4)  = 1
 c3_3:       X(3,1,1,5) + X(3,1,2,4) + X(3,2,1,5) + X(3,2,2,4) + X(3,4,1,5)
             + X(3,4,2,4) + X(3,5,1,5) + X(3,5,2,4)  = 1
 c4_1_1_5:   - X(1,2,1,5) - X(1,3,1,5) - X(1,4,1,5) - X(1,5,1,5) + X(2,1,1,5)
             + X(3,1,1,5) + X(4,1,1,5) + X(5,1,1,5)  = 0
 c4_1_2_5:   X(1,2,1,5) - X(2,1,1,5) - X(2,3,1,5) - X(2,4,1,5) - X(2,5,1,5)
             + X(3,2,1,5) + X(4,2,1,5) + X(5,2,1,5)  = 0
 c4_1_3_5:   X(1,3,1,5) + X(2,3,1,5) - X(3,1,1,5) - X(3,2,1,5) - X(3,4,1,5)
             - X(3,5,1,5) + X(4,3,1,5) + X(5,3,1,5)  = 0
 c4_1_4_5:   X(1,4,1,5) + X(2,4,1,5) + X(3,4,1,5) - X(4,1,1,5) - X(4,2,1,5)
             - X(4,3,1,5)  = 0
 c4_1_5_5:   X(1,5,1,5) + X(2,5,1,5) + X(3,5,1,5) - X(5,1,1,5) - X(5,2,1,5)
             - X(5,3,1,5)  = 0
 c4_2_1_4:   - X(1,2,2,4) - X(1,3,2,4) - X(1,4,2,4) - X(1,5,2,4) + X(2,1,2,4)
             + X(3,1,2,4) + X(4,1,2,4) + X(5,1,2,4)  = 0
 c4_2_2_4:   X(1,2,2,4) - X(2,1,2,4) - X(2,3,2,4) - X(2,4,2,4) - X(2,5,2,4)
             + X(3,2,2,4) + X(4,2,2,4) + X(5,2,2,4)  = 0
 c4_2_3_4:   X(1,3,2,4) + X(2,3,2,4) - X(3,1,2,4) - X(3,2,2,4) - X(3,4,2,4)
             - X(3,5,2,4) + X(4,3,2,4) + X(5,3,2,4)  = 0
 c4_2_4_4:   X(1,4,2,4) + X(2,4,2,4) + X(3,4,2,4) - X(4,1,2,4) - X(4,2,2,4)
             - X(4,3,2,4)  = 0
 c4_2_5_4:   X(1,5,2,4) + X(2,5,2,4) + X(3,5,2,4) - X(5,1,2,4) - X(5,2,2,4)
             - X(5,3,2,4)  = 0
 c5:         f(4,1) + f(4,2) + f(4,3) + f(5,1) + f(5,2) + f(5,3)  = 28
 c6_1:       - f(1,2) - f(1,3) - f(1,4) - f(1,5) + f(2,1) + f(3,1) + f(4,1)
             + f(5,1)  = 4
 c6_2:       f(1,2) - f(2,1) - f(2,3) - f(2,4) - f(2,5) + f(3,2) + f(4,2)
             + f(5,2)  = 2
 c6_3:       f(1,3) + f(2,3) - f(3,1) - f(3,2) - f(3,4) - f(3,5) + f(4,3)
             + f(5,3)  = 8
 c7_1_2:     10 X(1,2,1,5) + 10 X(1,2,2,4) - f(1,2) >= 0
 c7_1_3:     10 X(1,3,1,5) + 10 X(1,3,2,4) - f(1,3) >= 0
 c7_2_1:     10 X(2,1,1,5) + 10 X(2,1,2,4) - f(2,1) >= 0
 c7_2_3:     10 X(2,3,1,5) + 10 X(2,3,2,4) - f(2,3) >= 0
 c7_3_1:     10 X(3,1,1,5) + 10 X(3,1,2,4) - f(3,1) >= 0
 c7_3_2:     10 X(3,2,1,5) + 10 X(3,2,2,4) - f(3,2) >= 0
 c7_4_1:     10 X(4,1,1,5) + 10 X(4,1,2,4) - f(4,1) >= 0
 c7_4_2:     10 X(4,2,1,5) + 10 X(4,2,2,4) - f(4,2) >= 0
 c7_4_3:     10 X(4,3,1,5) + 10 X(4,3,2,4) - f(4,3) >= 0
 c7_5_1:     10 X(5,1,1,5) + 10 X(5,1,2,4) - f(5,1) >= 0
 c7_5_2:     10 X(5,2,1,5) + 10 X(5,2,2,4) - f(5,2) >= 0
 c7_5_3:     10 X(5,3,1,5) + 10 X(5,3,2,4) - f(5,3) >= 0
 c8_4_1_1_5: X(4,1,1,5)  = 0
 c8_5_1_2_4: X(5,1,2,4)  = 0
 c8_4_2_1_5: X(4,2,1,5)  = 0
 c8_5_2_2_4: X(5,2,2,4)  = 0
 c8_4_3_1_5: X(4,3,1,5)  = 0
 c8_5_3_2_4: X(5,3,2,4)  = 0
 c9_1_4_1_5: X(1,4,1,5)  = 0
 c9_1_5_2_4: X(1,5,2,4)  = 0
 c9_2_4_1_5: X(2,4,1,5)  = 0
 c9_2_5_2_4: X(2,5,2,4)  = 0
 c9_3_4_1_5: X(3,4,1,5)  = 0
 c9_3_5_2_4: X(3,5,2,4)  = 0
 c11_1_2:    f(1,2) >= 0
 c11_1_3:    f(1,3) >= 0
 c11_1_4:    f(1,4) >= 0
 c11_1_5:    f(1,5) >= 0
 c11_2_1:    f(2,1) >= 0
 c11_2_3:    f(2,3) >= 0
 c11_2_4:    f(2,4) >= 0
 c11_2_5:    f(2,5) >= 0
 c11_3_1:    f(3,1) >= 0
 c11_3_2:    f(3,2) >= 0
 c11_3_4:    f(3,4) >= 0
 c11_3_5:    f(3,5) >= 0
 c11_4_1:    f(4,1) >= 0
 c11_4_2:    f(4,2) >= 0
 c11_4_3:    f(4,3) >= 0
 c11_5_1:    f(5,1) >= 0
 c11_5_2:    f(5,2) >= 0
 c11_5_3:    f(5,3) >= 0
 c12_1_2:    6 X(1,2,1,5) + 6 X(1,2,2,4) - f(1,2) >= 0
 c12_1_3:    6 X(1,3,1,5) + 6 X(1,3,2,4) - f(1,3) >= 0
 c12_2_1:    8 X(2,1,1,5) + 8 X(2,1,2,4) - f(2,1) >= 0
 c12_2_3:    8 X(2,3,1,5) + 8 X(2,3,2,4) - f(2,3) >= 0
 c12_3_1:    2 X(3,1,1,5) + 2 X(3,1,2,4) - f(3,1) >= 0
 c12_3_2:    2 X(3,2,1,5) + 2 X(3,2,2,4) - f(3,2) >= 0
 c12_4_1:    10 X(4,1,1,5) + 10 X(4,1,2,4) - f(4,1) >= 0
 c12_4_2:    10 X(4,2,1,5) + 10 X(4,2,2,4) - f(4,2) >= 0
 c12_4_3:    10 X(4,3,1,5) + 10 X(4,3,2,4) - f(4,3) >= 0
 c12_5_1:    10 X(5,1,1,5) + 10 X(5,1,2,4) - f(5,1) >= 0
 c12_5_2:    10 X(5,2,1,5) + 10 X(5,2,2,4) - f(5,2) >= 0
 c12_5_3:    10 X(5,3,1,5) + 10 X(5,3,2,4) - f(5,3) >= 0
 c13_1_2:    2 X(1,2,1,5) + 2 X(1,2,2,4) - f(1,2) <= 0
 c13_1_3:    8 X(1,3,1,5) + 8 X(1,3,2,4) - f(1,3) <= 0
 c13_2_1:    4 X(2,1,1,5) + 4 X(2,1,2,4) - f(2,1) <= 0
 c13_2_3:    8 X(2,3,1,5) + 8 X(2,3,2,4) - f(2,3) <= 0
 c13_3_1:    4 X(3,1,1,5) + 4 X(3,1,2,4) - f(3,1) <= 0
 c13_3_2:    2 X(3,2,1,5) + 2 X(3,2,2,4) - f(3,2) <= 0
Bounds
 0 <= X(1,2,1,5) <= 1
 0 <= X(1,2,2,4) <= 1
 0 <= X(1,3,1,5) <= 1
 0 <= X(1,3,2,4) <= 1
 0 <= X(1,4,1,5) <= 1
 0 <= X(1,4,2,4) <= 1
 0 <= X(1,5,1,5) <= 1
 0 <= X(1,5,2,4) <= 1
 0 <= X(2,1,1,5) <= 1
 0 <= X(2,1,2,4) <= 1
 0 <= X(2,3,1,5) <= 1
 0 <= X(2,3,2,4) <= 1
 0 <= X(2,4,1,5) <= 1
 0 <= X(2,4,2,4) <= 1
 0 <= X(2,5,1,5) <= 1
 0 <= X(2,5,2,4) <= 1
 0 <= X(3,1,1,5) <= 1
 0 <= X(3,1,2,4) <= 1
 0 <= X(3,2,1,5) <= 1
 0 <= X(3,2,2,4) <= 1
 0 <= X(3,4,1,5) <= 1
 0 <= X(3,4,2,4) <= 1
 0 <= X(3,5,1,5) <= 1
 0 <= X(3,5,2,4) <= 1
 0 <= X(4,1,1,5) <= 1
 0 <= X(4,1,2,4) <= 1
 0 <= X(4,2,1,5) <= 1
 0 <= X(4,2,2,4) <= 1
 0 <= X(4,3,1,5) <= 1
 0 <= X(4,3,2,4) <= 1
 0 <= X(5,1,1,5) <= 1
 0 <= X(5,1,2,4) <= 1
 0 <= X(5,2,1,5) <= 1
 0 <= X(5,2,2,4) <= 1
 0 <= X(5,3,1,5) <= 1
 0 <= X(5,3,2,4) <= 1
 0 <= f(1,2) <= 10
 0 <= f(1,3) <= 10
 0 <= f(1,4) <= 10
 0 <= f(1,5) <= 10
 0 <= f(2,1) <= 10
 0 <= f(2,3) <= 10
 0 <= f(2,4) <= 10
 0 <= f(2,5) <= 10
 0 <= f(3,1) <= 10
 0 <= f(3,2) <= 10
 0 <= f(3,4) <= 10
 0 <= f(3,5) <= 10
 0 <= f(4,1) <= 10
 0 <= f(4,2) <= 10
 0 <= f(4,3) <= 10
 0 <= f(5,1) <= 10
 0 <= f(5,2) <= 10
 0 <= f(5,3) <= 10
Binaries
 X(1,2,1,5)  X(1,2,2,4)  X(1,3,1,5)  X(1,3,2,4)  X(1,4,1,5)  X(1,4,2,4) 
 X(1,5,1,5)  X(1,5,2,4)  X(2,1,1,5)  X(2,1,2,4)  X(2,3,1,5)  X(2,3,2,4) 
 X(2,4,1,5)  X(2,4,2,4)  X(2,5,1,5)  X(2,5,2,4)  X(3,1,1,5)  X(3,1,2,4) 
 X(3,2,1,5)  X(3,2,2,4)  X(3,4,1,5)  X(3,4,2,4)  X(3,5,1,5)  X(3,5,2,4) 
 X(4,1,1,5)  X(4,1,2,4)  X(4,2,1,5)  X(4,2,2,4)  X(4,3,1,5)  X(4,3,2,4) 
 X(5,1,1,5)  X(5,1,2,4)  X(5,2,1,5)  X(5,2,2,4)  X(5,3,1,5)  X(5,3,2,4) 
End
